p tw 836 1436
1 442
1 443
1 605
1 606
2 622
2 623
3 671
3 672
4 641
4 642
5 634
5 635
6 706
6 707
7 389
7 390
7 666
7 667
8 745
8 746
9 825
9 826
10 809
10 810
11 732
11 733
12 472
12 473
13 654
13 655
14 364
14 365
14 559
14 560
15 668
15 669
16 428
16 429
16 583
16 584
17 434
17 435
17 596
17 597
18 457
18 458
18 560
18 561
19 786
19 787
20 482
20 483
21 365
21 366
21 561
21 562
22 366
22 367
23 505
23 506
23 794
23 795
24 418
24 419
24 572
24 573
25 380
25 381
25 652
25 653
26 803
26 804
27 767
27 768
28 638
28 639
29 465
29 466
29 751
29 752
30 722
30 723
31 800
31 801
32 474
32 475
33 805
33 806
34 388
34 389
34 665
34 666
35 742
35 743
36 612
36 613
37 362
37 363
38 776
38 777
39 834
39 835
40 523
40 524
41 386
41 387
41 661
41 662
42 699
42 700
43 714
43 715
44 431
44 432
44 592
44 593
45 804
45 805
46 635
46 636
47 704
47 705
48 387
48 388
49 616
49 617
50 412
50 413
51 667
51 668
52 754
52 755
53 526
53 527
54 688
54 689
55 763
55 764
56 821
56 822
57 813
57 814
58 437
58 438
58 730
58 731
59 498
59 499
60 534
60 535
60 831
60 832
61 715
61 716
62 439
62 440
62 602
62 603
63 368
63 369
63 628
63 629
64 657
64 658
65 614
65 615
66 533
66 534
67 490
67 491
68 369
68 370
68 632
68 633
69 807
69 808
70 750
70 751
71 363
71 364
71 558
71 559
72 681
72 682
73 429
73 430
73 544
73 545
73 586
73 587
73 718
73 719
74 370
74 371
75 506
75 507
76 443
76 444
77 832
77 833
78 470
78 471
79 728
79 729
80 454
80 455
81 473
81 474
82 359
82 360
83 684
83 685
84 479
84 480
84 579
84 580
85 644
85 645
86 480
86 481
87 438
87 439
88 790
88 791
89 619
89 620
90 820
90 821
91 455
91 456
92 633
92 634
93 423
93 424
94 795
94 796
95 538
95 539
96 417
96 418
97 467
97 468
98 660
98 661
99 497
99 498
99 781
99 782
100 677
100 678
101 798
101 799
102 756
102 757
103 483
103 484
103 582
103 583
104 492
104 493
105 626
105 627
106 514
106 515
107 400
107 401
108 196
108 486
108 487
108 545
108 589
108 590
108 770
108 771
109 823
109 824
110 485
110 486
110 769
110 770
111 726
111 727
112 802
112 803
113 371
113 372
114 649
114 650
115 659
115 660
116 720
116 721
117 493
117 494
118 458
118 459
119 721
119 722
120 507
120 508
120 557
120 558
121 537
121 538
122 679
122 680
123 640
123 641
124 531
124 532
125 629
125 630
126 425
126 426
126 581
126 582
127 729
127 730
128 656
128 657
129 687
129 688
130 717
130 718
131 741
131 742
132 236
132 511
132 512
132 609
133 464
133 465
134 686
134 687
135 409
135 410
135 565
135 566
136 653
136 654
137 509
137 510
138 385
138 386
138 597
138 598
139 793
139 794
140 449
140 450
141 766
141 767
142 504
142 505
142 789
142 790
143 501
143 502
143 785
143 786
144 822
144 823
145 175
145 444
145 445
145 607
145 737
145 738
146 495
146 496
146 778
146 779
147 491
147 492
147 598
147 599
148 746
148 747
149 613
149 614
150 527
150 528
151 674
151 675
152 662
152 663
153 815
153 816
154 719
154 720
155 510
155 511
155 806
155 807
156 694
156 695
157 396
157 397
158 535
158 536
158 599
158 600
159 451
159 452
159 550
159 551
160 416
160 417
161 647
161 648
162 827
162 828
163 791
163 792
164 835
164 836
165 463
165 464
166 452
166 453
166 552
166 553
167 713
167 714
168 524
168 525
168 819
168 820
169 731
169 732
170 695
170 696
171 422
171 423
171 709
171 710
172 631
172 632
173 401
173 402
174 710
174 711
175 446
175 447
175 607
176 411
176 412
177 393
177 394
178 445
178 446
179 525
179 526
180 744
180 745
181 481
181 482
182 675
182 676
183 810
183 811
184 697
184 698
185 372
185 373
185 567
185 568
186 469
186 470
186 753
186 754
187 680
187 681
188 503
188 504
188 788
188 789
189 403
189 404
189 683
189 684
190 517
190 518
190 568
190 569
191 374
191 375
192 404
192 405
192 554
192 555
193 358
193 359
193 546
193 547
194 664
194 665
195 528
195 529
196 468
196 469
196 545
196 573
196 574
196 752
196 753
197 488
197 489
198 408
198 409
198 693
198 694
199 383
199 384
199 591
199 592
200 392
200 393
200 603
200 604
201 701
201 702
202 643
202 644
203 624
203 625
204 402
204 403
204 553
204 554
205 673
205 674
206 705
206 706
207 796
207 797
208 621
208 622
209 484
209 485
209 585
209 586
210 426
210 427
211 453
211 454
211 743
211 744
212 361
212 362
212 549
212 550
213 739
213 740
214 691
214 692
215 456
215 457
216 375
216 376
216 577
216 578
217 627
217 628
218 760
218 761
219 824
219 825
220 413
220 414
221 376
221 377
221 578
221 579
222 725
222 726
223 360
223 361
223 548
223 549
224 625
224 626
225 379
225 380
225 580
225 581
226 749
226 750
227 405
227 406
227 555
227 556
227 685
227 686
228 669
228 670
229 441
229 442
229 604
229 605
229 735
229 736
230 529
230 530
231 406
231 407
231 690
231 691
232 692
232 693
233 447
233 448
233 738
233 739
234 655
234 656
235 436
235 437
235 600
235 601
235 727
235 728
236 609
237 475
237 476
238 618
238 619
239 471
239 472
239 575
239 576
240 381
240 382
240 587
240 588
241 384
241 385
241 593
241 594
242 833
242 834
243 518
243 519
243 570
243 571
244 466
244 467
245 830
245 831
246 499
246 500
247 415
247 416
248 620
248 621
249 399
249 400
250 755
250 756
251 774
251 775
252 407
252 408
253 682
253 683
254 420
254 421
254 703
254 704
255 651
255 652
256 496
256 497
256 542
256 543
256 601
256 602
256 777
256 778
257 757
257 758
258 424
258 425
258 716
258 717
259 269
259 539
259 836
260 522
260 523
261 460
261 461
261 563
261 564
262 812
262 813
263 459
263 460
263 540
263 541
263 562
263 563
263 747
263 748
264 734
264 735
265 390
265 391
266 663
266 664
267 689
267 690
268 397
268 398
268 676
268 677
269 539
269 606
269 607
269 836
270 367
270 368
270 564
270 565
271 708
271 709
272 698
272 699
273 433
273 434
274 658
274 659
275 797
275 798
276 448
276 449
276 547
276 548
277 723
277 724
278 476
278 477
278 761
278 762
279 377
279 378
279 648
279 649
280 765
280 766
281 462
281 463
282 630
282 631
283 711
283 712
284 816
284 817
285 773
285 774
286 410
286 411
286 696
286 697
287 808
287 809
288 780
288 781
289 608
289 609
290 477
290 478
291 519
291 520
291 571
291 572
292 395
292 396
293 784
293 785
294 762
294 763
295 512
295 513
295 566
295 567
296 502
296 503
297 672
297 673
298 394
298 395
299 758
299 759
300 521
300 522
300 576
300 577
301 759
301 760
302 508
302 509
302 543
302 544
302 556
302 557
302 801
302 802
303 792
303 793
304 430
304 431
304 590
304 591
305 828
305 829
306 515
306 516
307 421
307 422
307 707
307 708
308 398
308 399
308 551
308 552
309 500
309 501
309 783
309 784
310 536
310 537
311 771
311 772
312 623
312 624
313 419
313 420
314 736
314 737
315 513
315 514
315 811
315 812
316 487
316 488
316 772
316 773
317 382
317 383
318 461
318 462
319 611
319 612
320 516
320 517
320 569
320 570
321 520
321 521
321 574
321 575
322 435
322 436
323 642
323 643
324 712
324 713
325 489
325 490
325 594
325 595
326 440
326 441
326 733
326 734
327 450
327 451
327 740
327 741
328 768
328 769
329 817
329 818
330 639
330 640
331 775
331 776
332 530
332 531
332 588
332 589
333 617
333 618
334 610
334 611
335 478
335 479
336 427
336 428
336 584
336 585
337 432
337 433
337 724
337 725
338 636
338 637
339 646
339 647
340 645
340 646
341 818
341 819
342 826
342 827
343 615
343 616
344 702
344 703
345 799
345 800
346 414
346 415
346 700
346 701
347 378
347 379
347 650
347 651
348 494
348 495
348 779
348 780
349 814
349 815
350 678
350 679
351 764
351 765
352 373
352 374
352 637
352 638
353 782
353 783
354 532
354 533
354 541
354 542
354 595
354 596
354 829
354 830
355 787
355 788
356 391
356 392
356 670
356 671
357 748
357 749
358 359
359 360
360 361
361 362
362 363
363 364
364 365
365 366
366 367
367 368
368 369
369 370
370 371
371 372
372 373
373 374
374 375
375 376
376 377
377 378
378 379
379 380
380 381
381 382
382 383
383 384
384 385
385 386
386 387
387 388
388 389
389 390
390 391
391 392
392 393
393 394
394 395
395 396
396 397
397 398
398 399
399 400
400 401
401 402
402 403
403 404
404 405
405 406
406 407
407 408
408 409
409 410
410 411
411 412
412 413
413 414
414 415
415 416
416 417
417 418
418 419
419 420
420 421
421 422
422 423
423 424
424 425
425 426
426 427
427 428
428 429
429 430
430 431
431 432
432 433
433 434
434 435
435 436
436 437
437 438
438 439
439 440
440 441
441 442
442 443
443 444
444 445
445 446
446 447
447 448
448 449
449 450
450 451
451 452
452 453
453 454
454 455
455 456
456 457
457 458
458 459
459 460
460 461
461 462
462 463
463 464
464 465
465 466
466 467
467 468
468 469
469 470
470 471
471 472
472 473
473 474
474 475
475 476
476 477
477 478
478 479
479 480
480 481
481 482
482 483
483 484
484 485
485 486
486 487
487 488
488 489
489 490
490 491
491 492
492 493
493 494
494 495
495 496
496 497
497 498
498 499
499 500
500 501
501 502
502 503
503 504
504 505
505 506
506 507
507 508
508 509
509 510
510 511
511 512
512 513
513 514
514 515
515 516
516 517
517 518
518 519
519 520
520 521
521 522
522 523
523 524
524 525
525 526
526 527
527 528
528 529
529 530
530 531
531 532
532 533
533 534
534 535
535 536
536 537
537 538
538 539
540 541
541 542
542 543
543 544
544 545
546 547
547 548
548 549
549 550
550 551
551 552
552 553
553 554
554 555
555 556
556 557
557 558
558 559
559 560
560 561
561 562
562 563
563 564
564 565
565 566
566 567
567 568
568 569
569 570
570 571
571 572
572 573
573 574
574 575
575 576
576 577
577 578
578 579
579 580
580 581
581 582
582 583
583 584
584 585
585 586
586 587
587 588
588 589
589 590
590 591
591 592
592 593
593 594
594 595
595 596
596 597
597 598
598 599
599 600
600 601
601 602
602 603
603 604
604 605
605 606
606 607
608 609
610 611
611 612
612 613
613 614
614 615
615 616
616 617
617 618
618 619
619 620
620 621
621 622
622 623
623 624
624 625
625 626
626 627
627 628
628 629
629 630
630 631
631 632
632 633
633 634
634 635
635 636
636 637
637 638
638 639
639 640
640 641
641 642
642 643
643 644
644 645
645 646
646 647
647 648
648 649
649 650
650 651
651 652
652 653
653 654
654 655
655 656
656 657
657 658
658 659
659 660
660 661
661 662
662 663
663 664
664 665
665 666
666 667
667 668
668 669
669 670
670 671
671 672
672 673
673 674
674 675
675 676
676 677
677 678
678 679
679 680
680 681
681 682
682 683
683 684
684 685
685 686
686 687
687 688
688 689
689 690
690 691
691 692
692 693
693 694
694 695
695 696
696 697
697 698
698 699
699 700
700 701
701 702
702 703
703 704
704 705
705 706
706 707
707 708
708 709
709 710
710 711
711 712
712 713
713 714
714 715
715 716
716 717
717 718
718 719
719 720
720 721
721 722
722 723
723 724
724 725
725 726
726 727
727 728
728 729
729 730
730 731
731 732
732 733
733 734
734 735
735 736
736 737
737 738
738 739
739 740
740 741
741 742
742 743
743 744
744 745
745 746
746 747
747 748
748 749
749 750
750 751
751 752
752 753
753 754
754 755
755 756
756 757
757 758
758 759
759 760
760 761
761 762
762 763
763 764
764 765
765 766
766 767
767 768
768 769
769 770
770 771
771 772
772 773
773 774
774 775
775 776
776 777
777 778
778 779
779 780
780 781
781 782
782 783
783 784
784 785
785 786
786 787
787 788
788 789
789 790
790 791
791 792
792 793
793 794
794 795
795 796
796 797
797 798
798 799
799 800
800 801
801 802
802 803
803 804
804 805
805 806
806 807
807 808
808 809
809 810
810 811
811 812
812 813
813 814
814 815
815 816
816 817
817 818
818 819
819 820
820 821
821 822
822 823
823 824
824 825
825 826
826 827
827 828
828 829
829 830
830 831
831 832
832 833
833 834
834 835
835 836
